
mapping with 16 threads...

 0:00:01.14 Mapping INCOV075-AC.extracted.fq.gz to NUC reference...

 0:06:22.03 Generating binary hit matrix.
0:06:22.07 Loading /labs/khatrilab/solomonb/covid/isb/optitype/INCOV075-AC_1.bam started. Number of HLA reads loaded (updated every thousand):
1K...2K...3K...4K...5K...6K...7K...8K...9K...10K...11K...12K...13K...14K...15K...16K...17K...18K...19K...20K...21K...22K...23K...24K...25K...26K...27K...28K...29K...30K...31K...32K...33K...34K...35K...36K...37K...38K...39K...40K...41K...42K...43K...44K...45K...46K...47K...48K...49K...50K...51K...52K...53K...54K...55K...56K...57K...58K...59K...60K...61K...62K...63K...64K...65K...66K...67K...68K...69K...70K...71K...72K...73K...74K...75K...76K...77K...78K...79K...80K...81K...82K...83K...84K...85K...86K...87K...88K...89K...90K...91K...92K...93K...94K...95K...96K...97K...98K...99K...100K...101K...102K...103K...104K...105K...106K...107K...108K...109K...110K...111K...112K...113K...114K...115K...116K...117K...118K...119K...120K...121K...122K...123K...124K...125K...126K...127K...128K...
 0:07:11.63 128969 reads loaded. Creating dataframe...
0:20:54.78 Dataframes created. Shape: 128969 x 7339, hits: 42180713 (42387231), sparsity: 1 in 22.33

 0:21:49.64 temporary pruning of identical rows and columns

 0:21:52.51 Size of mtx with unique rows and columns: (3426, 2004)
0:21:52.51 determining minimal set of non-overshadowed alleles

 0:22:43.17 Keeping only the minimal number of required alleles (977,)

 0:22:43.90 Creating compact model...

starting ilp solver with 1 threads...

 0:24:45.89 Initializing OptiType model...
GLPSOL: GLPK LP/MIP Solver, v4.57
Parameter(s) specified in the command line:
 --write /tmp/tmp5Yy7YH.glpk.raw --wglp /tmp/tmp3tOJ5A.glpk.glp --cpxlp /tmp/tmp9bHWo2.pyomo.lp
Reading problem data from '/tmp/tmp9bHWo2.pyomo.lp'...
/tmp/tmp9bHWo2.pyomo.lp:146133: warning: lower bound of variable 'x8719' redefined
/tmp/tmp9bHWo2.pyomo.lp:146133: warning: upper bound of variable 'x8719' redefined
8718 rows, 5333 columns, 110284 non-zeros
3154 integer variables, all of which are binary
149287 lines were read
Writing problem data to '/tmp/tmp3tOJ5A.glpk.glp'...
139589 lines were written
GLPK Integer Optimizer, v4.57
8718 rows, 5333 columns, 110284 non-zeros
3154 integer variables, all of which are binary
Preprocessing...
1966 hidden covering inequaliti(es) were detected
8717 rows, 5332 columns, 110283 non-zeros
3154 integer variables, all of which are binary
Scaling...
 A: min|aij| =  1.000e+00  max|aij| =  4.000e+00  ratio =  4.000e+00
Problem data seem to be well scaled
Constructing initial basis...
Size of triangular part is 8717
Solving LP relaxation...
GLPK Simplex Optimizer, v4.57
8717 rows, 5332 columns, 110283 non-zeros
      0: obj =  -0.000000000e+00 inf =   4.000e+00 (4)
      4: obj =  -0.000000000e+00 inf =   0.000e+00 (0)
*   500: obj =   6.230542400e+04 inf =   0.000e+00 (1986) 1
*  1000: obj =   7.579702100e+04 inf =   0.000e+00 (1614)
*  1500: obj =   7.909688100e+04 inf =   0.000e+00 (1205) 1
*  2000: obj =   7.965452800e+04 inf =   0.000e+00 (832)
*  2500: obj =   7.971402800e+04 inf =   0.000e+00 (573)
*  3000: obj =   8.006997500e+04 inf =   0.000e+00 (180)
*  3180: obj =   8.019915100e+04 inf =   0.000e+00 (0)
OPTIMAL LP SOLUTION FOUND
Integer optimization begins...
+  3180: mip =     not found yet <=              +inf        (1; 0)
+  3182: >>>>>   8.019855200e+04 <=   8.019855200e+04   0.0% (2; 0)
+  3182: mip =   8.019855200e+04 <=     tree is empty   0.0% (0; 3)
INTEGER OPTIMAL SOLUTION FOUND
Time used:   0.9 secs
Memory used: 23.3 Mb (24458098 bytes)
Writing MIP solution to '/tmp/tmp5Yy7YH.glpk.raw'...
14053 lines were written

 0:25:03.14 Result dataframe has been constructed...
